num_workers = 5;
num_tasks = 10;
P = 100;
N = 3;
cost = [|9,2,7,7,10,6,8,1,6,10|4,8,6,3,10,4,4,5,4,1|5,2,6,10,8,2,9,7,1,9|2,8,3,3,3,4,3,7,1,5|1,4,3,4,5,1,7,3,2,8|];
overqualification_cost = [1,4,2,4,4];
